2 5 5 
225 466 
225 76 45 42 53 14 
225 10 75 81 19 63 
225 82 54 12 43 7 
225 19 5 52 49 94 
225 26 41 43 23 63 
466 76 99 6 5 25 
466 28 22 53 97 14 
466 16 84 13 71 32 
466 59 5 99 8 1 
466 1 41 45 72 93 
